(set-logic QF_S)
(declare-fun var0 () Bool)
(declare-fun var1 () String)
(declare-fun var2 () String)
(declare-fun var3 () Int)
(declare-fun var4 () String)
(declare-fun var5 () Int)
(declare-fun var6 () Int)
(declare-fun var7 () String)
(assert (not var0))
(assert (>= (str.indexof var1 var2 var3) (str.len var4)))
(assert (>= var5 var6))
(assert (< (str.len "Z?p") (str.len var7)))
(check-sat)